proyfinal/src/viki/013/experimentInOfficeAgust.take6.output/ce60abc5-91d9-4656-a630-936d1b05599d.als.dat
{'cnf.clauses': '118081',
 'cnf.totvars': '69608',
 'conflict literals': '27',
 'conflicts': '18',
 'decisions': '3018',
 'memused.mb': '14.78',
 'outcome': 'UNSAT',
 'propagations': '30644',
 'restarts': '1',
 'solver.msecs': 38,
 'task.msecs': 119}
