proyfinal/src/viki/013/experimentInOfficeAgust.take6.output/ce60abc5-91d9-4656-a630-936d1b05599d.als.out
Reading from standard input... Use '--help' for help.
============================[ Problem Statistics ]=============================
|                                                                             |
|  Number of variables:         69608                                         |
|  Number of clauses:          118081                                         |
|  Parse time:                   0.03 s                                       |
|                                                                             |
============================[ Search Statistics ]==============================
| Conflicts |          ORIGINAL         |          LEARNT          | Progress |
|           |    Vars  Clauses Literals |    Limit  Clauses Lit/Cl |          |
===============================================================================
===============================================================================
restarts              : 1
conflicts             : 18             (470 /sec)
decisions             : 3018           (0.00 % random) (78764 /sec)
propagations          : 30644          (799749 /sec)
conflict literals     : 27             (0.00 % deleted)
Memory used           : 14.78 MB
CPU time              : 0.038317 s

UNSATISFIABLE
